(set-info :Origin "This instance was generated by: BanditFuzz-- an RL fuzzer for SMT solvers" )
(set-info :Author "Joe Scott, Fed Mora, Vijay Ganesh" )
(set-info :Contact "Joe Scott, joseph.scott@uwaterloo.ca")
(set-logic QF_BV)
(declare-const bool_0 Bool)
(declare-const bool_1 Bool)
(declare-const bool_2 Bool)
(declare-const bool_3 Bool)
(declare-const bool_4 Bool)
(declare-const bv_0 (_ BitVec 32))
(declare-const bv_1 (_ BitVec 32))
(declare-const bv_2 (_ BitVec 32))
(declare-const bv_3 (_ BitVec 32))
(declare-const bv_4 (_ BitVec 32))
(assert (or (bvuge (bvurem bv_3 bv_2) (bvudiv bv_1 #x512139e9 )) (bvsle (bvand bv_2 bv_1) (bvsub bv_0 #x5eb41629 ))))
(assert (bvsle (bvurem (bvnand bv_4 #x48899b51 ) (bvsdiv bv_0 #x9c4f99e8 )) (bvurem (bvurem #x91931512  #x4ec31cab ) (bvor bv_2 bv_1))))
(assert (bvugt (bvurem (bvurem bv_4 bv_3) (bvnand bv_0 #x2546d1c0 )) (bvurem (bvxor bv_4 bv_1) (bvxnor bv_3 #x9458e3ba ))))
(assert (xor (and (not true) (bvuge #x575f5086  bv_2)) (bvsgt (bvnor #x25b9d31b  bv_2) (bvsdiv #xba37787f  bv_0))))
(assert (bvsle (bvsmod (bvor #x6b470f74  #x2f4ff894 ) (bvnand #x770d8b0e  bv_3)) (bvsmod (bvsdiv #x2f218a0b  #xff6e696b ) (bvsdiv bv_0 #x3e31ece8 ))))
(check-sat)
(exit)
